========================================================== 
File name: C:\DEGR\assets\definitions\MSRCPSP_Gen\100_5_64_5_C.def
Creation date: Wed May 03 10:36:47 CEST 2023
Website: http://imopse.ii.pwr.edu.pl/ 
Reference: 
Myszkowski P. B., Skowronski M. E., Olech L., Oslizlo K., 
Hybrid Ant Colony Optimization in solving Multi-Skill Resource-Constrained Project Scheduling Problem, 
Soft Computing, DOI: DOI 10.1007/s00500-014-1455-x 
========================================================== 
General characteristics: 
Tasks: 100
Resources: 5
Precedence relations: 63
Number of skill types: 4
========================================================== 
ResourceID 	 Salary 	 Skills 
1	 	 	46.5	 	 Q3: 3 	 
2	 	 	80.8	 	 Q0: 3 	  Q1: 0 	  Q3: 0 	  Q4: 3 	 
3	 	 	37.4	 	 Q1: 1 	  Q4: 0 	 
4	 	 	58.7	 	 Q3: 1 	  Q0: 1 	 
5	 	 	43.1	 	 Q4: 0 	  Q0: 2 	 
========================================================== 
TaskID 	 Duration 	 Skill 	 Predecessor IDs 
1	27	Q1:	1
2	38	Q4:	3
3	11	Q0:	2
4	33	Q0:	2
5	16	Q3:	1
6	39	Q1:	0
7	19	Q3:	1
8	18	Q3:	1
9	13	Q4:	0
10	40	Q0:	3
11	38	Q3:	3	2
12	24	Q3:	0	8	2
13	15	Q3:	0
14	33	Q0:	3
15	37	Q4:	3	8
16	28	Q4:	3
17	10	Q3:	3
18	28	Q0:	2
19	26	Q3:	1	4
20	36	Q4:	0	15
21	22	Q4:	3	17
22	30	Q3:	0
23	21	Q0:	2
24	19	Q4:	3
25	29	Q3:	3
26	14	Q0:	1
27	20	Q0:	2
28	15	Q3:	3
29	32	Q4:	0
30	33	Q3:	1
31	22	Q3:	3
32	21	Q4:	3
33	9	Q4:	3
34	32	Q1:	0	33
35	32	Q1:	0
36	21	Q3:	0
37	26	Q3:	1
38	31	Q3:	3	7	2
39	30	Q0:	3
40	27	Q0:	3
41	29	Q1:	0
42	17	Q4:	3	32
43	17	Q0:	3
44	31	Q0:	1
45	33	Q3:	1
46	39	Q0:	1	45
47	31	Q3:	0
48	9	Q3:	3
49	37	Q3:	0	35
50	21	Q3:	1
51	32	Q4:	3	30
52	12	Q4:	0	28	9
53	38	Q1:	1	30
54	38	Q3:	0
55	39	Q4:	0
56	40	Q1:	0	28	35
57	35	Q0:	3	15
58	10	Q1:	0	32	11
59	15	Q4:	0	30	53
60	23	Q3:	1
61	15	Q0:	1
62	38	Q1:	0
63	36	Q0:	3
64	39	Q0:	3	40	13	39
65	9	Q4:	0	15
66	32	Q1:	1
67	34	Q4:	0	60
68	36	Q3:	0	23
69	12	Q3:	3
70	16	Q1:	1	66
71	16	Q1:	1	51
72	29	Q4:	0	23	31
73	15	Q1:	1
74	31	Q0:	2
75	14	Q3:	1	2
76	30	Q0:	2	11
77	32	Q4:	3	10
78	31	Q1:	1	72	65	63
79	9	Q4:	0
80	25	Q3:	1	30	73	74
81	38	Q3:	3	42
82	30	Q3:	3	40
83	40	Q4:	0	6
84	30	Q0:	2	6
85	39	Q4:	3
86	19	Q4:	0	26	39
87	26	Q3:	3	65
88	26	Q1:	1
89	20	Q3:	3	71	7	77	38
90	10	Q1:	1	17	51	77
91	37	Q0:	2	75
92	40	Q1:	1
93	39	Q0:	3
94	12	Q3:	3	20	8
95	13	Q3:	1
96	25	Q4:	0	4
97	22	Q3:	3
98	19	Q0:	1	40
99	17	Q3:	1
100	21	Q0:	3	50
========================================================== 